
  22   10
  10   10   10   10   10   10   10   10   10   10

   0   0   0   0   0   0   0   0   0   0   0   7 2 3 5 6 8 9 14 
   7   0   0   0   0   0   0   0   0   0  10   2 18 4 
   8   0   0   0   0   0  10   0   0   0   0   5 21 18 17 11 7 
   3   0   0   0   0   0   0  10   0   0   0   4 21 19 13 7 
   5   0   0   0  10   0   0   0   0   0   0   5 21 19 18 17 10 
   7   0   0   0   0   0   0   0   0   0  10   5 20 19 17 16 12 
   1  10   0   0   0   0   0   0   0   0   0   2 20 10 
  10   0   0  10   0   0   0   0   0   0   0   3 18 17 12 
   1   0   0   0  10   0   0   0   0   0   0   3 20 18 15 
   3   0   0   0   0   0   0   0   0  10   0   2 16 12 
   8   0   0   0   0   0   0   0   0   0  10   2 19 16 
  10   0   0   0  10   0   0   0   0   0   0   1 15 
   1   0   0  10   0   0   0   0   0   0   0   1 17 
  10   0   0   0   0  10   0   0   0   0   0   1 18 
   2   0   0   0   0   0   0   0   0  10   0   1 22
   2   0   0   0   0   0   0   0   0  10   0   1 22
   9   0   0   0  10   0   0   0   0   0   0   1 22
   2   0   0   0   0   0  10   0   0   0   0   1 22
   5   0   0   0   0   0   0   0   0   0  10   1 22
   5   0  10   0   0   0   0   0   0   0   0   1 22
   3   0   0   0   0   0   0  10   0   0   0   1 22
   0   0   0   0   0   0   0   0   0   0   0   0 
